c nIsolatedPIs 128
c maxPI 128
p cnf 450 967
c gate 129 -56 -120 0
-56 -129 0
-120 -129 0
56 120 129 0
c gate 130 56 120 0
56 -130 0
120 -130 0
-56 -120 130 0
c gate 131 55 119 0
55 -131 0
119 -131 0
-55 -119 131 0
c gate 132 -130 -131 0
-130 -132 0
-131 -132 0
130 131 132 0
c gate 133 -55 -119 0
-55 -133 0
-119 -133 0
55 119 133 0
c gate 134 -54 -118 0
-54 -134 0
-118 -134 0
54 118 134 0
c gate 135 -133 -134 0
-133 -135 0
-134 -135 0
133 134 135 0
c gate 136 54 118 0
54 -136 0
118 -136 0
-54 -118 136 0
c gate 137 53 117 0
53 -137 0
117 -137 0
-53 -117 137 0
c gate 138 -136 -137 0
-136 -138 0
-137 -138 0
136 137 138 0
c gate 139 -53 -117 0
-53 -139 0
-117 -139 0
53 117 139 0
c gate 140 49 113 0
49 -140 0
113 -140 0
-49 -113 140 0
c gate 141 50 114 0
50 -141 0
114 -141 0
-50 -114 141 0
c gate 142 -140 -141 0
-140 -142 0
-141 -142 0
140 141 142 0
c gate 143 -51 -115 0
-51 -143 0
-115 -143 0
51 115 143 0
c gate 144 -50 -114 0
-50 -144 0
-114 -144 0
50 114 144 0
c gate 145 -52 -116 0
-52 -145 0
-116 -145 0
52 116 145 0
c gate 146 -144 -145 0
-144 -146 0
-145 -146 0
144 145 146 0
c gate 147 -143 146 0
-143 -147 0
146 -147 0
143 -146 147 0
c gate 148 -142 147 0
-142 -148 0
147 -148 0
142 -147 148 0
c gate 149 52 116 0
52 -149 0
116 -149 0
-52 -116 149 0
c gate 150 51 115 0
51 -150 0
115 -150 0
-51 -115 150 0
c gate 151 -145 150 0
-145 -151 0
150 -151 0
145 -150 151 0
c gate 152 -149 -151 0
-149 -152 0
-151 -152 0
149 151 152 0
c gate 153 -148 152 0
-148 -153 0
152 -153 0
148 -152 153 0
c gate 154 -139 -153 0
-139 -154 0
-153 -154 0
139 153 154 0
c gate 155 138 -154 0
138 -155 0
-154 -155 0
-138 154 155 0
c gate 156 135 -155 0
135 -156 0
-155 -156 0
-135 155 156 0
c gate 157 132 -156 0
132 -157 0
-156 -157 0
-132 156 157 0
c gate 158 -129 -157 0
-129 -158 0
-157 -158 0
129 157 158 0
c gate 159 132 135 0
132 -159 0
135 -159 0
-132 -135 159 0
c gate 160 138 142 0
138 -160 0
142 -160 0
-138 -142 160 0
c gate 161 159 160 0
159 -161 0
160 -161 0
-159 -160 161 0
c gate 162 -49 -113 0
-49 -162 0
-113 -162 0
49 113 162 0
c gate 163 -129 -139 0
-129 -163 0
-139 -163 0
129 139 163 0
c gate 164 -162 163 0
-162 -164 0
163 -164 0
162 -163 164 0
c gate 165 147 164 0
147 -165 0
164 -165 0
-147 -164 165 0
c gate 166 152 165 0
152 -166 0
165 -166 0
-152 -165 166 0
c gate 167 161 166 0
161 -167 0
166 -167 0
-161 -166 167 0
c gate 168 44 108 0
44 -168 0
108 -168 0
-44 -108 168 0
c gate 169 -44 -108 0
-44 -169 0
-108 -169 0
44 108 169 0
c gate 170 43 107 0
43 -170 0
107 -170 0
-43 -107 170 0
c gate 171 -169 170 0
-169 -171 0
170 -171 0
169 -170 171 0
c gate 172 -168 -171 0
-168 -172 0
-171 -172 0
168 171 172 0
c gate 173 -42 -106 0
-42 -173 0
-106 -173 0
42 106 173 0
c gate 174 -43 -107 0
-43 -174 0
-107 -174 0
43 107 174 0
c gate 175 -169 -174 0
-169 -175 0
-174 -175 0
169 174 175 0
c gate 176 -173 175 0
-173 -176 0
175 -176 0
173 -175 176 0
c gate 177 172 176 0
172 -177 0
176 -177 0
-172 -176 177 0
c gate 178 42 106 0
42 -178 0
106 -178 0
-42 -106 178 0
c gate 179 41 105 0
41 -179 0
105 -179 0
-41 -105 179 0
c gate 180 -178 -179 0
-178 -180 0
-179 -180 0
178 179 180 0
c gate 181 -41 -105 0
-41 -181 0
-105 -181 0
41 105 181 0
c gate 182 180 -181 0
180 -182 0
-181 -182 0
-180 181 182 0
c gate 183 177 182 0
177 -183 0
182 -183 0
-177 -182 183 0
c gate 184 -46 -110 0
-46 -184 0
-110 -184 0
46 110 184 0
c gate 185 -47 -111 0
-47 -185 0
-111 -185 0
47 111 185 0
c gate 186 -184 -185 0
-184 -186 0
-185 -186 0
184 185 186 0
c gate 187 47 111 0
47 -187 0
111 -187 0
-47 -111 187 0
c gate 188 48 112 0
48 -188 0
112 -188 0
-48 -112 188 0
c gate 189 -187 -188 0
-187 -189 0
-188 -189 0
187 188 189 0
c gate 190 -48 -112 0
-48 -190 0
-112 -190 0
48 112 190 0
c gate 191 189 -190 0
189 -191 0
-190 -191 0
-189 190 191 0
c gate 192 186 191 0
186 -192 0
191 -192 0
-186 -191 192 0
c gate 193 45 109 0
45 -193 0
109 -193 0
-45 -109 193 0
c gate 194 46 110 0
46 -194 0
110 -194 0
-46 -110 194 0
c gate 195 -193 -194 0
-193 -195 0
-194 -195 0
193 194 195 0
c gate 196 -45 -109 0
-45 -196 0
-109 -196 0
45 109 196 0
c gate 197 195 -196 0
195 -197 0
-196 -197 0
-195 196 197 0
c gate 198 192 197 0
192 -198 0
197 -198 0
-192 -197 198 0
c gate 199 183 198 0
183 -199 0
198 -199 0
-183 -198 199 0
c gate 200 40 104 0
40 -200 0
104 -200 0
-40 -104 200 0
c gate 201 -40 -104 0
-40 -201 0
-104 -201 0
40 104 201 0
c gate 202 39 103 0
39 -202 0
103 -202 0
-39 -103 202 0
c gate 203 -201 202 0
-201 -203 0
202 -203 0
201 -202 203 0
c gate 204 -200 -203 0
-200 -204 0
-203 -204 0
200 203 204 0
c gate 205 38 102 0
38 -205 0
102 -205 0
-38 -102 205 0
c gate 206 37 101 0
37 -206 0
101 -206 0
-37 -101 206 0
c gate 207 -205 -206 0
-205 -207 0
-206 -207 0
205 206 207 0
c gate 208 -38 -102 0
-38 -208 0
-102 -208 0
38 102 208 0
c gate 209 -39 -103 0
-39 -209 0
-103 -209 0
39 103 209 0
c gate 210 -201 -209 0
-201 -210 0
-209 -210 0
201 209 210 0
c gate 211 -208 210 0
-208 -211 0
210 -211 0
208 -210 211 0
c gate 212 204 211 0
204 -212 0
211 -212 0
-204 -211 212 0
c gate 213 -207 212 0
-207 -213 0
212 -213 0
207 -212 213 0
c gate 214 204 -213 0
204 -214 0
-213 -214 0
-204 213 214 0
c gate 215 -37 -101 0
-37 -215 0
-101 -215 0
37 101 215 0
c gate 216 207 -215 0
207 -216 0
-215 -216 0
-207 215 216 0
c gate 217 212 216 0
212 -217 0
216 -217 0
-212 -216 217 0
c gate 218 36 100 0
36 -218 0
100 -218 0
-36 -100 218 0
c gate 219 -36 -100 0
-36 -219 0
-100 -219 0
36 100 219 0
c gate 220 35 99 0
35 -220 0
99 -220 0
-35 -99 220 0
c gate 221 -219 220 0
-219 -221 0
220 -221 0
219 -220 221 0
c gate 222 -218 -221 0
-218 -222 0
-221 -222 0
218 221 222 0
c gate 223 -35 -99 0
-35 -223 0
-99 -223 0
35 99 223 0
c gate 224 -219 -223 0
-219 -224 0
-223 -224 0
219 223 224 0
c gate 225 222 224 0
222 -225 0
224 -225 0
-222 -224 225 0
c gate 226 33 97 0
33 -226 0
97 -226 0
-33 -97 226 0
c gate 227 34 98 0
34 -227 0
98 -227 0
-34 -98 227 0
c gate 228 -226 -227 0
-226 -228 0
-227 -228 0
226 227 228 0
c gate 229 -34 -98 0
-34 -229 0
-98 -229 0
34 98 229 0
c gate 230 -228 -229 0
-228 -230 0
-229 -230 0
228 229 230 0
c gate 231 225 230 0
225 -231 0
230 -231 0
-225 -230 231 0
c gate 232 222 -231 0
222 -232 0
-231 -232 0
-222 231 232 0
c gate 233 217 -232 0
217 -233 0
-232 -233 0
-217 232 233 0
c gate 234 214 -233 0
214 -234 0
-233 -234 0
-214 233 234 0
c gate 235 -33 -97 0
-33 -235 0
-97 -235 0
33 97 235 0
c gate 236 -229 -235 0
-229 -236 0
-235 -236 0
229 235 236 0
c gate 237 228 236 0
228 -237 0
236 -237 0
-228 -236 237 0
c gate 238 225 237 0
225 -238 0
237 -238 0
-225 -237 238 0
c gate 239 217 238 0
217 -239 0
238 -239 0
-217 -238 239 0
c gate 240 -24 -88 0
-24 -240 0
-88 -240 0
24 88 240 0
c gate 241 23 87 0
23 -241 0
87 -241 0
-23 -87 241 0
c gate 242 24 88 0
24 -242 0
88 -242 0
-24 -88 242 0
c gate 243 -241 -242 0
-241 -243 0
-242 -243 0
241 242 243 0
c gate 244 -22 -86 0
-22 -244 0
-86 -244 0
22 86 244 0
c gate 245 -23 -87 0
-23 -245 0
-87 -245 0
23 87 245 0
c gate 246 -244 -245 0
-244 -246 0
-245 -246 0
244 245 246 0
c gate 247 22 86 0
22 -247 0
86 -247 0
-22 -86 247 0
c gate 248 21 85 0
21 -248 0
85 -248 0
-21 -85 248 0
c gate 249 -247 -248 0
-247 -249 0
-248 -249 0
247 248 249 0
c gate 250 -21 -85 0
-21 -250 0
-85 -250 0
21 85 250 0
c gate 251 20 84 0
20 -251 0
84 -251 0
-20 -84 251 0
c gate 252 -20 -84 0
-20 -252 0
-84 -252 0
20 84 252 0
c gate 253 19 -252 0
19 -253 0
-252 -253 0
-19 252 253 0
c gate 254 83 253 0
83 -254 0
253 -254 0
-83 -253 254 0
c gate 255 -251 -254 0
-251 -255 0
-254 -255 0
251 254 255 0
c gate 256 83 -252 0
83 -256 0
-252 -256 0
-83 252 256 0
c gate 257 -253 -256 0
-253 -257 0
-256 -257 0
253 256 257 0
c gate 258 18 82 0
18 -258 0
82 -258 0
-18 -82 258 0
c gate 259 17 81 0
17 -259 0
81 -259 0
-17 -81 259 0
c gate 260 -258 -259 0
-258 -260 0
-259 -260 0
258 259 260 0
c gate 261 -18 -82 0
-18 -261 0
-82 -261 0
18 82 261 0
c gate 262 -260 -261 0
-260 -262 0
-261 -262 0
260 261 262 0
c gate 263 -257 262 0
-257 -263 0
262 -263 0
257 -262 263 0
c gate 264 255 -263 0
255 -264 0
-263 -264 0
-255 263 264 0
c gate 265 -250 -264 0
-250 -265 0
-264 -265 0
250 264 265 0
c gate 266 249 -265 0
249 -266 0
-265 -266 0
-249 265 266 0
c gate 267 246 -266 0
246 -267 0
-266 -267 0
-246 266 267 0
c gate 268 243 -267 0
243 -268 0
-267 -268 0
-243 267 268 0
c gate 269 -240 -268 0
-240 -269 0
-268 -269 0
240 268 269 0
c gate 270 2 66 0
2 -270 0
66 -270 0
-2 -66 270 0
c gate 271 1 65 0
1 -271 0
65 -271 0
-1 -65 271 0
c gate 272 -270 -271 0
-270 -272 0
-271 -272 0
270 271 272 0
c gate 273 -3 -67 0
-3 -273 0
-67 -273 0
3 67 273 0
c gate 274 -2 -66 0
-2 -274 0
-66 -274 0
2 66 274 0
c gate 275 -273 -274 0
-273 -275 0
-274 -275 0
273 274 275 0
c gate 276 -272 275 0
-272 -276 0
275 -276 0
272 -275 276 0
c gate 277 4 68 0
4 -277 0
68 -277 0
-4 -68 277 0
c gate 278 3 67 0
3 -278 0
67 -278 0
-3 -67 278 0
c gate 279 -277 -278 0
-277 -279 0
-278 -279 0
277 278 279 0
c gate 280 -276 279 0
-276 -280 0
279 -280 0
276 -279 280 0
c gate 281 -4 -68 0
-4 -281 0
-68 -281 0
4 68 281 0
c gate 282 -5 -69 0
-5 -282 0
-69 -282 0
5 69 282 0
c gate 283 -281 -282 0
-281 -283 0
-282 -283 0
281 282 283 0
c gate 284 -280 283 0
-280 -284 0
283 -284 0
280 -283 284 0
c gate 285 6 70 0
6 -285 0
70 -285 0
-6 -70 285 0
c gate 286 5 69 0
5 -286 0
69 -286 0
-5 -69 286 0
c gate 287 -285 -286 0
-285 -287 0
-286 -287 0
285 286 287 0
c gate 288 -284 287 0
-284 -288 0
287 -288 0
284 -287 288 0
c gate 289 -7 -71 0
-7 -289 0
-71 -289 0
7 71 289 0
c gate 290 -6 -70 0
-6 -290 0
-70 -290 0
6 70 290 0
c gate 291 -289 -290 0
-289 -291 0
-290 -291 0
289 290 291 0
c gate 292 -288 291 0
-288 -292 0
291 -292 0
288 -291 292 0
c gate 293 8 72 0
8 -293 0
72 -293 0
-8 -72 293 0
c gate 294 7 71 0
7 -294 0
71 -294 0
-7 -71 294 0
c gate 295 -293 -294 0
-293 -295 0
-294 -295 0
293 294 295 0
c gate 296 -292 295 0
-292 -296 0
295 -296 0
292 -295 296 0
c gate 297 -9 -73 0
-9 -297 0
-73 -297 0
9 73 297 0
c gate 298 -8 -72 0
-8 -298 0
-72 -298 0
8 72 298 0
c gate 299 -297 -298 0
-297 -299 0
-298 -299 0
297 298 299 0
c gate 300 -296 299 0
-296 -300 0
299 -300 0
296 -299 300 0
c gate 301 10 74 0
10 -301 0
74 -301 0
-10 -74 301 0
c gate 302 9 73 0
9 -302 0
73 -302 0
-9 -73 302 0
c gate 303 -301 -302 0
-301 -303 0
-302 -303 0
301 302 303 0
c gate 304 -300 303 0
-300 -304 0
303 -304 0
300 -303 304 0
c gate 305 -10 -74 0
-10 -305 0
-74 -305 0
10 74 305 0
c gate 306 -12 -76 0
-12 -306 0
-76 -306 0
12 76 306 0
c gate 307 -11 -75 0
-11 -307 0
-75 -307 0
11 75 307 0
c gate 308 -306 -307 0
-306 -308 0
-307 -308 0
306 307 308 0
c gate 309 -305 308 0
-305 -309 0
308 -309 0
305 -308 309 0
c gate 310 -304 309 0
-304 -310 0
309 -310 0
304 -309 310 0
c gate 311 12 76 0
12 -311 0
76 -311 0
-12 -76 311 0
c gate 312 11 75 0
11 -312 0
75 -312 0
-11 -75 312 0
c gate 313 -306 312 0
-306 -313 0
312 -313 0
306 -312 313 0
c gate 314 -311 -313 0
-311 -314 0
-313 -314 0
311 313 314 0
c gate 315 -310 314 0
-310 -315 0
314 -315 0
310 -314 315 0
c gate 316 -14 -78 0
-14 -316 0
-78 -316 0
14 78 316 0
c gate 317 -15 -79 0
-15 -317 0
-79 -317 0
15 79 317 0
c gate 318 -316 -317 0
-316 -318 0
-317 -318 0
316 317 318 0
c gate 319 14 78 0
14 -319 0
78 -319 0
-14 -78 319 0
c gate 320 13 77 0
13 -320 0
77 -320 0
-13 -77 320 0
c gate 321 -319 -320 0
-319 -321 0
-320 -321 0
319 320 321 0
c gate 322 -13 -77 0
-13 -322 0
-77 -322 0
13 77 322 0
c gate 323 321 -322 0
321 -323 0
-322 -323 0
-321 322 323 0
c gate 324 318 323 0
318 -324 0
323 -324 0
-318 -323 324 0
c gate 325 -315 324 0
-315 -325 0
324 -325 0
315 -324 325 0
c gate 326 318 -321 0
318 -326 0
-321 -326 0
-318 321 326 0
c gate 327 15 79 0
15 -327 0
79 -327 0
-15 -79 327 0
c gate 328 16 80 0
16 -328 0
80 -328 0
-16 -80 328 0
c gate 329 -327 -328 0
-327 -329 0
-328 -329 0
327 328 329 0
c gate 330 -326 329 0
-326 -330 0
329 -330 0
326 -329 330 0
c gate 331 -325 330 0
-325 -331 0
330 -331 0
325 -330 331 0
c gate 332 -17 -81 0
-17 -332 0
-81 -332 0
17 81 332 0
c gate 333 -16 -80 0
-16 -333 0
-80 -333 0
16 80 333 0
c gate 334 -261 -333 0
-261 -334 0
-333 -334 0
261 333 334 0
c gate 335 -332 334 0
-332 -335 0
334 -335 0
332 -334 335 0
c gate 336 -240 -250 0
-240 -336 0
-250 -336 0
240 250 336 0
c gate 337 243 336 0
243 -337 0
336 -337 0
-243 -336 337 0
c gate 338 335 337 0
335 -338 0
337 -338 0
-335 -337 338 0
c gate 339 -257 338 0
-257 -339 0
338 -339 0
257 -338 339 0
c gate 340 246 249 0
246 -340 0
249 -340 0
-246 -249 340 0
c gate 341 260 340 0
260 -341 0
340 -341 0
-260 -340 341 0
c gate 342 255 341 0
255 -342 0
341 -342 0
-255 -341 342 0
c gate 343 339 342 0
339 -343 0
342 -343 0
-339 -342 343 0
c gate 344 -331 343 0
-331 -344 0
343 -344 0
331 -343 344 0
c gate 345 -269 -344 0
-269 -345 0
-344 -345 0
269 344 345 0
c gate 346 -30 -94 0
-30 -346 0
-94 -346 0
30 94 346 0
c gate 347 -31 -95 0
-31 -347 0
-95 -347 0
31 95 347 0
c gate 348 -346 -347 0
-346 -348 0
-347 -348 0
346 347 348 0
c gate 349 30 94 0
30 -349 0
94 -349 0
-30 -94 349 0
c gate 350 29 93 0
29 -350 0
93 -350 0
-29 -93 350 0
c gate 351 -349 -350 0
-349 -351 0
-350 -351 0
349 350 351 0
c gate 352 348 -351 0
348 -352 0
-351 -352 0
-348 351 352 0
c gate 353 32 96 0
32 -353 0
96 -353 0
-32 -96 353 0
c gate 354 31 95 0
31 -354 0
95 -354 0
-31 -95 354 0
c gate 355 -353 -354 0
-353 -355 0
-354 -355 0
353 354 355 0
c gate 356 -352 355 0
-352 -356 0
355 -356 0
352 -355 356 0
c gate 357 28 92 0
28 -357 0
92 -357 0
-28 -92 357 0
c gate 358 -28 -92 0
-28 -358 0
-92 -358 0
28 92 358 0
c gate 359 27 91 0
27 -359 0
91 -359 0
-27 -91 359 0
c gate 360 -358 359 0
-358 -360 0
359 -360 0
358 -359 360 0
c gate 361 -357 -360 0
-357 -361 0
-360 -361 0
357 360 361 0
c gate 362 -26 -90 0
-26 -362 0
-90 -362 0
26 90 362 0
c gate 363 -27 -91 0
-27 -363 0
-91 -363 0
27 91 363 0
c gate 364 -358 -363 0
-358 -364 0
-363 -364 0
358 363 364 0
c gate 365 -362 364 0
-362 -365 0
364 -365 0
362 -364 365 0
c gate 366 361 365 0
361 -366 0
365 -366 0
-361 -365 366 0
c gate 367 -29 -93 0
-29 -367 0
-93 -367 0
29 93 367 0
c gate 368 348 -367 0
348 -368 0
-367 -368 0
-348 367 368 0
c gate 369 26 90 0
26 -369 0
90 -369 0
-26 -90 369 0
c gate 370 25 89 0
25 -370 0
89 -370 0
-25 -89 370 0
c gate 371 -369 -370 0
-369 -371 0
-370 -371 0
369 370 371 0
c gate 372 -25 -89 0
-25 -372 0
-89 -372 0
25 89 372 0
c gate 373 -32 -96 0
-32 -373 0
-96 -373 0
32 96 373 0
c gate 374 -372 -373 0
-372 -374 0
-373 -374 0
372 373 374 0
c gate 375 371 374 0
371 -375 0
374 -375 0
-371 -374 375 0
c gate 376 368 375 0
368 -376 0
375 -376 0
-368 -375 376 0
c gate 377 366 376 0
366 -377 0
376 -377 0
-366 -376 377 0
c gate 378 356 377 0
356 -378 0
377 -378 0
-356 -377 378 0
c gate 379 -345 378 0
-345 -379 0
378 -379 0
345 -378 379 0
c gate 380 366 -371 0
366 -380 0
-371 -380 0
-366 371 380 0
c gate 381 361 -380 0
361 -381 0
-380 -381 0
-361 380 381 0
c gate 382 368 -381 0
368 -382 0
-381 -382 0
-368 381 382 0
c gate 383 356 -382 0
356 -383 0
-382 -383 0
-356 382 383 0
c gate 384 -373 -383 0
-373 -384 0
-383 -384 0
373 383 384 0
c gate 385 -379 -384 0
-379 -385 0
-384 -385 0
379 384 385 0
c gate 386 239 -385 0
239 -386 0
-385 -386 0
-239 385 386 0
c gate 387 234 -386 0
234 -387 0
-386 -387 0
-234 386 387 0
c gate 388 199 -387 0
199 -388 0
-387 -388 0
-199 387 388 0
c gate 389 177 -180 0
177 -389 0
-180 -389 0
-177 180 389 0
c gate 390 172 -389 0
172 -390 0
-389 -390 0
-172 389 390 0
c gate 391 198 -390 0
198 -391 0
-390 -391 0
-198 390 391 0
c gate 392 186 -195 0
186 -392 0
-195 -392 0
-186 195 392 0
c gate 393 189 -392 0
189 -393 0
-392 -393 0
-189 392 393 0
c gate 394 -190 -393 0
-190 -394 0
-393 -394 0
190 393 394 0
c gate 395 -391 -394 0
-391 -395 0
-394 -395 0
391 394 395 0
c gate 396 -388 395 0
-388 -396 0
395 -396 0
388 -395 396 0
c gate 397 167 -396 0
167 -397 0
-396 -397 0
-167 396 397 0
c gate 398 -158 -397 0
-158 -398 0
-397 -398 0
158 397 398 0
c gate 399 60 124 0
60 -399 0
124 -399 0
-60 -124 399 0
c gate 400 -60 -124 0
-60 -400 0
-124 -400 0
60 124 400 0
c gate 401 59 123 0
59 -401 0
123 -401 0
-59 -123 401 0
c gate 402 -400 401 0
-400 -402 0
401 -402 0
400 -401 402 0
c gate 403 -399 -402 0
-399 -403 0
-402 -403 0
399 402 403 0
c gate 404 -58 -122 0
-58 -404 0
-122 -404 0
58 122 404 0
c gate 405 -59 -123 0
-59 -405 0
-123 -405 0
59 123 405 0
c gate 406 -400 -405 0
-400 -406 0
-405 -406 0
400 405 406 0
c gate 407 -404 406 0
-404 -407 0
406 -407 0
404 -406 407 0
c gate 408 403 407 0
403 -408 0
407 -408 0
-403 -407 408 0
c gate 409 58 122 0
58 -409 0
122 -409 0
-58 -122 409 0
c gate 410 57 121 0
57 -410 0
121 -410 0
-57 -121 410 0
c gate 411 -409 -410 0
-409 -411 0
-410 -411 0
409 410 411 0
c gate 412 -57 -121 0
-57 -412 0
-121 -412 0
57 121 412 0
c gate 413 411 -412 0
411 -413 0
-412 -413 0
-411 412 413 0
c gate 414 408 413 0
408 -414 0
413 -414 0
-408 -413 414 0
c gate 415 -62 -126 0
-62 -415 0
-126 -415 0
62 126 415 0
c gate 416 -63 -127 0
-63 -416 0
-127 -416 0
63 127 416 0
c gate 417 -415 -416 0
-415 -417 0
-416 -417 0
415 416 417 0
c gate 418 63 127 0
63 -418 0
127 -418 0
-63 -127 418 0
c gate 419 64 128 0
64 -419 0
128 -419 0
-64 -128 419 0
c gate 420 -418 -419 0
-418 -420 0
-419 -420 0
418 419 420 0
c gate 421 -64 -128 0
-64 -421 0
-128 -421 0
64 128 421 0
c gate 422 420 -421 0
420 -422 0
-421 -422 0
-420 421 422 0
c gate 423 417 422 0
417 -423 0
422 -423 0
-417 -422 423 0
c gate 424 61 125 0
61 -424 0
125 -424 0
-61 -125 424 0
c gate 425 62 126 0
62 -425 0
126 -425 0
-62 -126 425 0
c gate 426 -424 -425 0
-424 -426 0
-425 -426 0
424 425 426 0
c gate 427 -61 -125 0
-61 -427 0
-125 -427 0
61 125 427 0
c gate 428 426 -427 0
426 -428 0
-427 -428 0
-426 427 428 0
c gate 429 423 428 0
423 -429 0
428 -429 0
-423 -428 429 0
c gate 430 414 429 0
414 -430 0
429 -430 0
-414 -429 430 0
c gate 431 -398 430 0
-398 -431 0
430 -431 0
398 -430 431 0
c gate 432 408 -411 0
408 -432 0
-411 -432 0
-408 411 432 0
c gate 433 403 -432 0
403 -433 0
-432 -433 0
-403 432 433 0
c gate 434 199 -214 0
199 -434 0
-214 -434 0
-199 214 434 0
c gate 435 395 -434 0
395 -435 0
-434 -435 0
-395 434 435 0
c gate 436 167 -435 0
167 -436 0
-435 -436 0
-167 435 436 0
c gate 437 -158 -436 0
-158 -437 0
-436 -437 0
158 436 437 0
c gate 438 414 -437 0
414 -438 0
-437 -438 0
-414 437 438 0
c gate 439 433 -438 0
433 -439 0
-438 -439 0
-433 438 439 0
c gate 440 -427 -439 0
-427 -440 0
-439 -440 0
427 439 440 0
c gate 441 426 -440 0
426 -441 0
-440 -441 0
-426 440 441 0
c gate 442 423 -441 0
423 -442 0
-441 -442 0
-423 441 442 0
c gate 443 -418 -442 0
-418 -443 0
-442 -443 0
418 442 443 0
c gate 444 429 -433 0
429 -444 0
-433 -444 0
-429 433 444 0
c gate 445 417 -426 0
417 -445 0
-426 -445 0
-417 426 445 0
c gate 446 420 -445 0
420 -446 0
-445 -446 0
-420 445 446 0
c gate 447 -421 -446 0
-421 -447 0
-446 -447 0
421 446 447 0
c gate 448 -444 -447 0
-444 -448 0
-447 -448 0
444 447 448 0
c gate 449 -443 448 0
-443 -449 0
448 -449 0
443 -448 449 0
c gate 450 431 449 0
431 -450 0
449 -450 0
-431 -449 450 0
c PO
450 0
